
Gurobi 9.0.3 (win64, Java) logging started Sun Feb 28 12:03:55 2021


--------------------------------------------
Warning: your license will expire in 4 days
--------------------------------------------

Academic license - for non-commercial use only
